(set-logic HORN)

(declare-fun inv-f
             (Int Int Int Int Int Int Int Int Int Int Int Int Int Int Int Int)
             Bool)
(assert (forall ((A Int)
         (B Int)
         (C Int)
         (D Int)
         (E Int)
         (F Int)
         (G Int)
         (H Int)
         (I Int)
         (J Int)
         (K Int)
         (L Int)
         (M Int)
         (N Int)
         (O Int)
         (P Int))
  (=> (and (inv-f P O N M L K J I H G F E D C B A)
              (= (- P I) 0)
              (= (- O E) 0)
              (>= (- I B) 0)
              (= (- N B) 0)
              (>= (- (- 1) I) 0)
              (= (- M A) 0)
              (< (- I A) 0))
         false)
    ))
(assert (forall ((A Int)
         (B Int)
         (C Int)
         (D Int)
         (E Int)
         (F Int)
         (G Int)
         (H Int)
         (I Int)
         (J Int)
         (K Int)
         (L Int)
         (M Int)
         (N Int)
         (O Int)
         (P Int))
  (=> (and (= (- P J) 0)
              (= (- O F) 0)
              (= (- N B) 0)
              (= (- M A) 0)
              (= (+ (- 2) F) 0)
              (= J 0)
              (>= B 0)
              (>= A 0)
              (>= (- B A) 0))
         (inv-f P O N M L K J I H G F E D C B A))
    ))
(assert (forall ((A Int)
         (B Int)
         (C Int)
         (D Int)
         (E Int)
         (F Int)
         (G Int)
         (H Int)
         (I Int)
         (J Int)
         (K Int)
         (L Int)
         (M Int)
         (N Int)
         (O Int)
         (P Int)
         (Q Int)
         (R Int)
         (S Int)
         (T Int)
         (U Int)
         (V Int)
         (W Int)
         (X Int)
         (Y Int)
         (Z Int)
         (A1 Int)
         (B1 Int)
         (C1 Int)
         (D1 Int)
         (E1 Int)
         (F1 Int))
  (let ((a!1 (and (= (- P X) 0) (= (- L W) 0))))
     (let ((a!2 (and a!1
                     (>= (+ (- (- 1) P) G) 0)
                     (= (+ (- (- 1) P) O) 0)
                     (= (+ (- 161) L K) 0)
                     (= (- N O) 0)
                     (= (- I K) 0)
                     (= (- N F1) 0)
                     (= (- I U) 0)
                     (= (- V H) 0)
                     (= (- J H) 0)
                     (= (- T G) 0)
                     (= (- F G) 0)
                     (= (- S E) 0)))
           (a!3 (and a!1
                     (< (+ (- (- 1) P) G) 0)
                     (= (- N P) 0)
                     (= (- I L) 0)
                     (= (- N F1) 0)
                     (= (- I U) 0)
                     (= (- V H) 0)
                     (= (- J H) 0)
                     (= (- T G) 0)
                     (= (- F G) 0)
                     (= (- S E) 0))))
     (let ((a!4 (or (and a!1
                         (= (- P F1) 0)
                         (= (- L U) 0)
                         (= (- X F1) 0)
                         (= (- W U) 0)
                         (= (- V J) 0)
                         (= (- T F) 0)
                         (= (- S E) 0))
                    a!2
                    a!3)))
       (=> (and (inv-f X W V T S R Q P O N M L K I H G) a!4)
           (inv-f F1 U J F E D C B A E1 D1 C1 B1 A1 Z Y)))))
    ))


(check-sat)
(exit)
